20
1 0 28
2 0 96
2 1 96
3 0 2
3 1 17
3 2 79
4 0 8
4 1 14
4 2 17
4 3 10
5 0 41
5 1 45
5 2 39
5 3 68
5 4 47
6 0 96
6 1 5
6 2 28
6 3 93
6 4 93
6 5 60
7 0 94
7 1 8
7 2 95
7 3 54
7 4 97
7 5 39
7 6 60
8 0 26
8 1 64
8 2 19
8 3 25
8 4 26
8 5 84
8 6 35
8 7 91
9 0 41
9 1 9
9 2 31
9 3 14
9 4 17
9 5 80
9 6 14
9 7 60
9 8 5
10 0 64
10 1 16
10 2 53
10 3 57
10 4 23
10 5 45
10 6 41
10 7 52
10 8 86
10 9 35
11 0 50
11 1 43
11 2 66
11 3 66
11 4 1
11 5 36
11 6 50
11 7 16
11 8 22
11 9 50
11 10 66
12 0 68
12 1 59
12 2 26
12 3 83
12 4 94
12 5 88
12 6 68
12 7 23
12 8 65
12 9 69
12 10 48
12 11 73
13 0 76
13 1 4
13 2 10
13 3 29
13 4 97
13 5 76
13 6 32
13 7 19
13 8 56
13 9 97
13 10 58
13 11 77
13 12 37
14 0 85
14 1 3
14 2 66
14 3 56
14 4 42
14 5 76
14 6 78
14 7 23
14 8 12
14 9 90
14 10 61
14 11 26
14 12 37
14 13 56
15 0 33
15 1 86
15 2 44
15 3 69
15 4 6
15 5 61
15 6 21
15 7 38
15 8 17
15 9 17
15 10 78
15 11 20
15 12 37
15 13 78
15 14 90
16 0 58
16 1 18
16 2 25
16 3 75
16 4 31
16 5 86
16 6 15
16 7 56
16 8 72
16 9 89
16 10 30
16 11 93
16 12 6
16 13 77
16 14 86
16 15 8
17 0 10
17 1 52
17 2 50
17 3 28
17 4 20
17 5 13
17 6 57
17 7 10
17 8 3
17 9 14
17 10 23
17 11 38
17 12 88
17 13 77
17 14 85
17 15 99
17 16 37
18 0 41
18 1 25
18 2 80
18 3 70
18 4 40
18 5 65
18 6 35
18 7 91
18 8 41
18 9 19
18 10 24
18 11 88
18 12 84
18 13 54
18 14 30
18 15 89
18 16 1
18 17 1
19 0 78
19 1 96
19 2 15
19 3 98
19 4 41
19 5 44
19 6 37
19 7 79
19 8 95
19 9 45
19 10 14
19 11 27
19 12 51
19 13 16
19 14 100
19 15 51
19 16 93
19 17 5
19 18 57
